c Variant instance for RES-SAT testing (20 variables, 30 clauses)
p cnf 20 30
1 -2 3 0
4 5 -6 0
-1 4 -7 0
2 3 8 0
-3 -4 10 0
6 -8 9 0
7 11 -12 0
-2 -13 14 0
15 -16 17 0
16 18 -19 0
-8 12 11 0
2 -5 7 0
3 6 9 0
-4 8 -10 0
1 -11 12 0
13 -14 -17 0
16 -17 18 0
4 7 14 0
5 -6 15 0
-1 -2 -3 0
8 10 -12 0
-7 9 13 0
11 -14 16 0
17 18 19 0
-10 13 16 0
2 5 -9 0
-11 14 10 0
3 -4 20 0
6 -7 8 0
-15 -16 -17 0
